nNurses = 64;
nHours = 34;
minHours = 10;
maxHours = 19;
maxConsec = 7;
maxPresence = 8;
demand = [33, 35, 34, 36, 33, 28, 30, 27, 27, 22, 20, 20, 16, 20, 23, 19, 21, 25, 29, 25, 21, 17, 19, 14, 13, 9, 13, 13, 15, 10, 12, 17, 12, 11];
